% Instancia generada para Grupo 5
% Diámetros: [75, 100, 150] mm
% Capacidades: [795, 1414, 3181] l/min
% Demanda total: 1163 l/min
% Costos tipo a: 146, tipo b: 172
% Semilla: 915607

nP = 2;
nT = 5;
nC1 = 6;
nC2 = 11;
N = 24;

nA = 106;
arc_from = [1, 1, 1, 1, 1, 2, 2, 2, 2, 2, 3, 3, 3, 3, 3, 3, 4, 4, 4, 4, 4, 4, 5, 5, 5, 5, 5, 5, 6, 6, 6, 6, 6, 6, 7, 7, 7, 7, 7, 7, 8, 8, 8, 8, 8, 8, 8, 8, 8, 8, 8, 9, 9, 9, 9, 9, 9, 9, 9, 9, 9, 9, 10, 10, 10, 10, 10, 10, 10, 10, 10, 10, 10, 11, 11, 11, 11, 11, 11, 11, 11, 11, 11, 11, 12, 12, 12, 12, 12, 12, 12, 12, 12, 12, 12, 13, 13, 13, 13, 13, 13, 13, 13, 13, 13, 13];
arc_to   = [3, 4, 5, 6, 7, 3, 4, 5, 6, 7, 8, 9, 10, 11, 12, 13, 8, 9, 10, 11, 12, 13, 8, 9, 10, 11, 12, 13, 8, 9, 10, 11, 12, 13, 8, 9, 10, 11, 12, 13, 14, 15, 16, 17, 18, 19, 20, 21, 22, 23, 24, 14, 15, 16, 17, 18, 19, 20, 21, 22, 23, 24, 14, 15, 16, 17, 18, 19, 20, 21, 22, 23, 24, 14, 15, 16, 17, 18, 19, 20, 21, 22, 23, 24, 14, 15, 16, 17, 18, 19, 20, 21, 22, 23, 24, 14, 15, 16, 17, 18, 19, 20, 21, 22, 23, 24];

demand = [0, 0, 0, 0, 0, 0, 0, 71, 98, 43, 96, 68, 90, 89, 58, 70, 55, 62, 52, 65, 90, 40, 41, 75];

install_cost = array2d(1..106, 1..3, [20, 24, 32, 50, 24, 78, 50, 62, 78, 50, 62, 78, 20, 24, 78, 50, 62, 32, 20, 62, 78, 20, 24, 78, 50, 62, 32, 20, 24, 78, 20, 24, 78, 50, 62, 32, 50, 62, 32, 50, 62, 78, 50, 24, 78, 20, 62, 32, 50, 24, 78, 50, 62, 78, 20, 62, 32, 50, 62, 32, 20, 24, 78, 20, 24, 78, 50, 62, 32, 50, 62, 78, 50, 62, 78, 20, 62, 32, 50, 24, 78, 50, 24, 32, 50, 62, 78, 20, 24, 32, 20, 62, 78, 20, 24, 78, 50, 62, 32, 50, 24, 78, 50, 24, 32, 50, 62, 32, 20, 24, 32, 50, 24, 78, 20, 62, 78, 50, 24, 32, 20, 62, 78, 20, 62, 32, 50, 62, 78, 20, 24, 32, 50, 24, 32, 20, 62, 78, 50, 62, 32, 20, 24, 78, 50, 24, 32, 50, 62, 78, 20, 24, 78, 20, 62, 78, 50, 62, 78, 20, 24, 78, 50, 62, 78, 20, 62, 78, 50, 62, 78, 20, 62, 78, 20, 24, 78, 50, 62, 32, 50, 24, 78, 20, 24, 32, 50, 24, 78, 50, 24, 32, 20, 62, 32, 50, 62, 78, 20, 62, 78, 50, 24, 32, 50, 62, 78, 50, 24, 78, 20, 24, 32, 20, 24, 78, 50, 24, 78, 20, 24, 32, 20, 62, 32, 50, 62, 78, 20, 62, 32, 20, 24, 32, 20, 62, 32, 50, 62, 32, 50, 24, 32, 50, 62, 78, 50, 24, 78, 50, 24, 32, 50, 62, 32, 50, 62, 78, 20, 24, 78, 50, 62, 78, 50, 24, 32, 20, 24, 78, 20, 24, 32, 50, 62, 32, 20, 24, 32, 50, 62, 32, 20, 62, 32, 50, 62, 32, 20, 62, 32, 20, 24, 32, 50, 62, 32, 20, 62, 78, 20, 24, 32, 20, 24, 78, 20, 62, 78, 50, 62, 78, 50, 62, 78, 20, 24, 78]);
trans_cost   = [6.03, 11.69, 11.32, 8.19, 9.51, 8.51, 6.48, 10.65, 6.71, 7.56, 9.56, 6.89, 10.14, 6.91, 5.92, 9.13, 7.07, 6.71, 10.48, 8.13, 8.68, 8.38, 5.29, 7.92, 7.9, 7.75, 9.45, 14.55, 9.79, 7.82, 9.79, 11.64, 5.23, 9.51, 8.27, 9.43, 8.83, 8.37, 9.8, 9.2, 11.7, 10.26, 7.89, 4.08, 9.17, 7.01, 7.69, 12.55, 7.45, 6.33, 5.95, 4.81, 8.98, 8.87, 7.52, 13.42, 11.18, 6.25, 4.58, 9.06, 5.74, 7.82, 8.21, 8.53, 5.93, 6.74, 7.99, 7.09, 7.0, 6.45, 5.56, 7.42, 8.57, 5.17, 5.3, 7.0, 6.54, 6.18, 3.29, 7.77, 9.08, 11.82, 7.5, 9.78, 4.49, 5.82, 9.73, 9.46, 9.98, 1.55, 6.81, 8.05, 5.85, 9.16, 11.43, 9.24, 7.35, 9.61, 9.23, 6.07, 9.59, 13.34, 10.82, 8.26, 7.27, 9.14];
